&CONTROL
  calculation = 'nscf',
  prefix = 'gan',
  outdir = './tmp/',
  pseudo_dir = './pseudo/'
/

&SYSTEM
  ibrav = 4,
  celldm(1) = 6.00,
  celldm(3) = 1.626,
  nat = 4,
  ntyp = 2,
  ecutwfc = 50.0,
  ecutrho = 200.0,
  occupations = 'tetrahedra'
/

&ELECTRONS
/

ATOMIC_SPECIES
 Ga  69.723  Ga.pbe-n-kjpaw_psl.1.0.0.UPF
 N   14.007  N.pbe-n-kjpaw_psl.1.0.0.UPF

ATOMIC_POSITIONS {crystal}
 Ga 0.000000 0.000000 0.000000
 Ga 0.333333 0.666667 0.500000
 N  0.000000 0.000000 0.375000
 N  0.333333 0.666667 0.875000

K_POINTS automatic
12 12 8 0 0 0

