&DOS
  prefix = 'gan',
  outdir = './tmp/',
  fildos = 'gan.dos.dat'
/

