&BANDS
  prefix = 'GaN',
  outdir = './',
  filband = 'GaN.bands.dat',
  lsym = .true.
/

