&control
  prefix = 'GaN',
  calculation = 'bands',
  pseudo_dir = './',
  outdir = './'
/

&system
  ibrav = 2, 
  celldm(1) = 8.56, 
  nat = 2, 
  ntyp = 2,
  ecutwfc = 60,
  ecutrho = 320,
  occupations = 'tetrahedra',
  nbnd = 20
/

&electrons
  conv_thr = 1.0d-8
/

ATOMIC_SPECIES
  Ga 69.72300 Ga.pbe-dn-kjpaw_psl.1.0.0.UPF
  N  14.00670 N.pbe-n-kjpaw_psl.1.0.0.UPF

ATOMIC_POSITIONS crystal
  Ga 0.00 0.00 0.00
  N  0.25 0.25 0.25

K_POINTS {crystal_b}
5
  0.0000 0.5000 0.0000 30 !L
  0.0000 0.0000 0.0000 40 !Gamma
  0.5000 0.0000 0.0000 20 !X
  0.3750 0.2500 0.3750 40 !U
  0.0000 0.0000 0.0000 30 !Gamma

