&BANDS
  prefix = 'gan',
  outdir = './tmp/',
  filband = 'gan.bands.dat'
/

